language Essence 1.3

letting course_load be
        function(1 --> 17, 2 --> 1, 3 --> 1, 4 --> 1, 5 --> 1, 6 --> 4, 7 --> 1, 8 --> 2, 9 --> 3, 10 --> 9, 11 --> 24,
                 12 --> 9, 13 --> 6, 14 --> 6, 15 --> 1, 16 --> 7, 17 --> 18, 18 --> 24, 19 --> 19, 20 --> 1, 21 --> 11,
                 22 --> 19, 23 --> 20, 24 --> 1, 25 --> 1, 26 --> 23, 27 --> 1, 28 --> 1, 29 --> 1, 30 --> 6, 31 --> 1,
                 32 --> 1, 33 --> 2, 34 --> 5, 35 --> 1, 36 --> 1, 37 --> 1, 38 --> 16, 39 --> 1, 40 --> 21, 41 --> 1,
                 42 --> 1, 43 --> 6, 44 --> 1, 45 --> 1)
letting courses_per_period_lb be 7
letting courses_per_period_ub be 17
letting load_per_period_lb be 13
letting load_per_period_ub be 50
letting n_courses be 45
letting n_periods be 6
letting prerequisite be
        relation((2, 18), (4, 18), (5, 18), (6, 18), (8, 18), (10, 18), (11, 18), (13, 18), (14, 18), (15, 18),
                 (16, 18))
$ Visualisation for prerequisite
$  2 18
$  4 18
$  5 18
$  6 18
$  8 18
$ 10 18
$ 11 18
$ 13 18
$ 14 18
$ 15 18
$ 16 18

